100
32
1
2
17
21
4
30
1
27
10
32
17
24
13
10
30
29
20
19
31
10
15
16
8
14
13
8
4
27
29
8
23
30
8
3
25
20
30
18
20
20
8
27
26
7
21
6
30
26
21
29
27
5
18
14
31
20
18
30
23
14
5
20
17
22
19
19
20
25
12
18
13
11
29
20
28
31
23
22
25
2
28
7
6
2
20
24
8
22
27
6
22
8
24
4
19
21
17
3
28
5